dag/suffix.sol
gjh: "suffix.gjh" written.  Execute
 
	include "suffix.gjh"
	remove "suffix.gjh";

Options
7
0
1
0
3
20140524
0
1
3
0
3
0
